c FILE /home/rafael/Documents/HappySet/MIHS/inputs/happygen/output/graph_d_regular_k5_p0.1_v100_20241127_084037.txt
c SOURCE This is a d-regular graph formed for the happy graph colouring problem.
c DESCRIPTION It was generated using the problem generator of Rhyd Lewis
c
c GRAPH STATS
c Seed                             = -1654096474
c Number of Nodes                  = 100
c Number of colours k              = 5
c Number of pre-assignments        = 10
c Degree of all vertices           = 6
c Density                          = 0.0606061
c 
c The degrees of nodes 1 to 100, respectively, are as follows 
c [6, 6, 6, 6, 6, 6, 6, 6, 6, 6, 6, 6, 6, 6, 6, 6, 6, 6, 6, 6, 6, 6, 6, 6, 6, 6, 
c  6, 6, 6, 6, 6, 6, 6, 6, 6, 6, 6, 6, 6, 6, 6, 6, 6, 6, 6, 6, 6, 6, 6, 6, 6, 
c  6, 6, 6, 6, 6, 6, 6, 6, 6, 6, 6, 6, 6, 6, 6, 6, 6, 6, 6, 6, 6, 6, 6, 6, 6, 
c  6, 6, 6, 6, 6, 6, 6, 6, 6, 6, 6, 6, 6, 6, 6, 6, 6, 6, 6, 6, 6, 6, 6, 6] 
c  
p edge 100 300 5
e 1 5
e 1 26
e 1 31
e 1 65
e 1 85
e 1 91
e 2 13
e 2 30
e 2 52
e 2 57
e 2 66
e 2 74
e 3 14
e 3 36
e 3 47
e 3 59
e 3 61
e 3 79
e 4 41
e 4 44
e 4 46
e 4 53
e 4 67
e 4 73
e 5 19
e 5 26
e 5 53
e 5 54
e 5 55
e 6 63
e 6 67
e 6 69
e 6 82
e 6 89
e 6 92
e 7 21
e 7 25
e 7 32
e 7 38
e 7 70
e 7 76
e 8 20
e 8 28
e 8 34
e 8 47
e 8 89
e 8 97
e 9 27
e 9 33
e 9 48
e 9 79
e 9 88
e 9 93
e 10 17
e 10 24
e 10 31
e 10 37
e 10 56
e 10 99
e 11 52
e 11 58
e 11 72
e 11 80
e 11 84
e 11 87
e 12 24
e 12 52
e 12 55
e 12 60
e 12 71
e 12 80
e 13 29
e 13 50
e 13 62
e 13 90
e 13 98
e 14 21
e 14 33
e 14 38
e 14 83
e 14 100
e 15 20
e 15 25
e 15 28
e 15 36
e 15 49
e 15 94
e 16 43
e 16 64
e 16 67
e 16 87
e 16 90
e 16 99
e 17 22
e 17 27
e 17 32
e 17 72
e 17 86
e 18 26
e 18 44
e 18 77
e 18 80
e 18 94
e 18 98
e 19 31
e 19 79
e 19 83
e 19 88
e 19 93
e 20 23
e 20 49
e 20 62
e 20 63
e 21 34
e 21 40
e 21 59
e 21 83
e 22 23
e 22 51
e 22 56
e 22 91
e 22 100
e 23 29
e 23 60
e 23 71
e 23 93
e 24 27
e 24 44
e 24 48
e 24 82
e 25 44
e 25 53
e 25 78
e 25 96
e 26 34
e 26 35
e 26 83
e 27 39
e 27 54
e 27 66
e 28 43
e 28 51
e 28 60
e 28 70
e 29 38
e 29 55
e 29 77
e 29 92
e 30 33
e 30 37
e 30 45
e 30 68
e 30 71
e 31 44
e 31 64
e 31 65
e 32 36
e 32 54
e 32 85
e 32 97
e 33 43
e 33 66
e 33 86
e 34 73
e 34 78
e 34 98
e 35 45
e 35 49
e 35 62
e 35 69
e 35 74
e 36 45
e 36 68
e 36 78
e 37 40
e 37 58
e 37 68
e 37 97
e 38 39
e 38 80
e 38 100
e 39 48
e 39 51
e 39 58
e 39 95
e 40 60
e 40 64
e 40 85
e 40 88
e 41 42
e 41 52
e 41 57
e 41 77
e 41 99
e 42 48
e 42 82
e 42 84
e 42 87
e 42 90
e 43 57
e 43 66
e 43 75
e 44 63
e 45 47
e 45 62
e 45 78
e 46 51
e 46 71
e 46 76
e 46 80
e 46 96
e 47 55
e 47 69
e 47 83
e 48 51
e 48 53
e 49 57
e 49 65
e 49 84
e 50 55
e 50 56
e 50 57
e 50 89
e 50 95
e 51 90
e 52 56
e 52 83
e 53 89
e 53 94
e 54 63
e 54 75
e 54 98
e 55 88
e 56 93
e 56 99
e 57 60
e 58 73
e 58 92
e 58 97
e 59 64
e 59 71
e 59 81
e 59 96
e 60 89
e 61 69
e 61 70
e 61 75
e 61 88
e 61 89
e 62 81
e 62 93
e 63 67
e 63 78
e 64 66
e 64 99
e 65 81
e 65 87
e 65 100
e 66 84
e 67 94
e 67 95
e 68 69
e 68 86
e 68 99
e 69 94
e 70 72
e 70 76
e 70 91
e 71 98
e 72 81
e 72 92
e 72 94
e 73 84
e 73 85
e 73 96
e 74 75
e 74 79
e 74 86
e 74 91
e 75 85
e 75 90
e 76 77
e 76 87
e 76 95
e 77 78
e 77 92
e 79 81
e 79 95
e 80 82
e 81 86
e 82 86
e 82 87
e 84 96
e 85 98
e 88 97
e 90 100
e 91 92
e 91 93
e 95 96
e 97 100
n 5 2
n 6 3
n 34 1
n 39 2
n 49 4
n 51 2
n 65 4
n 66 5
n 73 1
n 100 4
